156 35 151 3 186 107 188 67 14 183 147 69 45 157 128 185 80 62 97 158 74 41 119 179 5 133 167 140 118 17 103 9 91 47 169 146 12 149 160 184 197 16 144 135 82 164 72 40 87 94 55 1 86 48 88 168 114 115 10 89 137 36 83 70 166 21 192 79 15 64 44 159 123 22 37 195 42 25 141 112 19 58 176 154 81 120 0 175 65 190 100 84 101 117 163 113 29 139 26 90 53 124 23 76 46 152 155 129 71 75 189 6 150 132 127 162 105 85 56 43 59 39 138 96 165 95 52 116 18 180 38 63 142 187 61 181 11 177 34 50 143 2 153 109 136 73 134 111 57 110 78 31 125 24 77 145 104 28 199 51 30 32 99 191 8 92 131 198 7 174 148 102 13 4 54 121 60 27 20 173 49 122 126 106 171 172 68 161 108 196 130 66 182 178 93 193 33 194 170 98